$molecule
0 1
O -0.790909 1.149780 0.907453 2001 2 3 0 0
H -1.628044 1.245320 1.376372 2002 1 0 0 0
H -0.669346 1.913705 0.331002 2002 1 0 0 0
O 1.178001 -0.686227 0.841306 2001 5 6 0 0
H 0.870001 -1.337091 1.468215 2002 4 0 0 0
H 0.472696 -0.008397 0.851892 2002 4 0 0 0
$end

$rem
BASIS = 6-31+G*
!DMA = 1
EXCHANGE = B3LYP
FORCE_FIELD = amber99
GUI = 2
JOB_TYPE = Optimization
QM_MM_INTERFACE = oniom
SCF_CONVERGENCE = 8
THRESH = 12
USER_CONNECT = true
$end

$qm_atoms
4 5 6
$end
