$molecule
0 1
  C    0.0000000    0.6266426    1.8305387
  C    0.0000000   -0.0836336    0.5021027
  C    0.0000000    0.8035223   -0.7295793
  C    0.0000000    0.0084663   -2.0225549
  O    0.0000000   -1.3120963    0.4393246
  H   -0.8962763    1.2455946    1.9151907
  H    0.8962763    1.2455946    1.9151907
  H    0.0000000   -0.1077035    2.6416420
  H    0.8896585    1.4405392   -0.6915619
  H   -0.8896585    1.4405392   -0.6915619
  H    0.8847773   -0.6328871   -2.0899395
  H    0.0000000    0.6827623   -2.8845937
  H   -0.8847773   -0.6328871   -2.0899395
$end

$rem
   BASIS       =  6-31G*
   DMA         =  1
   EXCHANGE    =  HF
   GUI         =  2
   MM_CHARGES  = true
   JOB_TYPE    = NMR
$end

