$molecule
0 1
  C   -0.8926423   -0.3468405   -0.1607521
  C    0.5973898   -0.2250052    0.1024225
  H   -1.1900482   -1.4164062   -0.1531220
  H   -1.1369772    0.0919056   -1.1506815
  H   -1.4598127    0.1940698    0.6249907
  H    1.1629246   -0.7591823   -0.6882777
  H    0.8451371   -0.6690901    1.0889925
  H    0.8939945    0.8440313    0.0996798
$end

$rem
   BASIS  =  6-31G
   EXCHANGE  =  HF
   GUI  =  2
$end

$efp_fragments
THYMINE_L -1.237715 3.175162 -0.914469 -0.571658 0.759542 -1.308135
METHANE_L 2.065629 1.112279 -2.914159 -1.523062 0.639620 -0.603646
METHANE_L 2.323228 -3.608117 -0.603779 -0.631364 0.966461 -0.095484
METHANE_L -1.819419 -1.579750 3.134695 -0.254465 0.754239 -0.718795
METHANE_L 0.172904 1.616119 3.392893 3.128430 -0.454834 2.061162
METHANE_L 0.022398 -2.221982 -3.274858 -2.984823 -0.661484 2.349137
METHANE_L 1.404054 4.235578 1.190089 -0.899925 -0.804319 1.673982
$end
