$molecule
1 1
  C   -0.7578981    2.4222547   -0.0868631
  C    0.7578981    2.4222547    0.0868631
  O    1.2471272    1.2471272   -0.5290139
  C    2.4222547    0.7578981    0.0868631
  C    2.4222547   -0.7578981   -0.0868631
  O    1.2471272   -1.2471272    0.5290139
  C    0.7578981   -2.4222547   -0.0868631
  C   -0.7578981   -2.4222547    0.0868631
  O   -1.2471272   -1.2471272   -0.5290139
  C   -2.4222547   -0.7578981    0.0868631
  C   -2.4222547    0.7578981   -0.0868631
  O   -1.2471272    1.2471272    0.5290139
  H   -0.9586322    2.4693707   -1.1819539
  H   -1.1903095    3.3182469    0.4082829
  H    0.9586322    2.4693707    1.1819539
  H    1.1903095    3.3182469   -0.4082829
  H    2.4693707    0.9586322    1.1819539
  H    3.3182469    1.1903095   -0.4082829
  H    3.3182469   -1.1903095    0.4082829
  H    2.4693707   -0.9586322   -1.1819539
  H    1.1903095   -3.3182469    0.4082829
  H    0.9586322   -2.4693707   -1.1819539
  H   -0.9586322   -2.4693707    1.1819539
  H   -1.1903095   -3.3182469   -0.4082829
  H   -2.4693707   -0.9586322    1.1819539
  H   -3.3182469   -1.1903095   -0.4082829
  H   -3.3182469    1.1903095    0.4082829
  H   -2.4693707    0.9586322   -1.1819539
 Li   -0.0000000   -0.0000000   -0.0000000
$end

$rem
   BASIS  =  6-31G
   EXCHANGE  =  HF
   GUI  =  2
   JOB_TYPE  =  Optimization
$end

